p tdp 31 61
1 7
28 29
3 13
4 5
16 19
24 31
14 16
10 15
26 31
12 17
15 29
3 17
5 25
14 18
5 18
16 20
23 27
8 28
6 11
23 30
6 22
2 6
1 30
9 29
12 30
25 31
19 21
6 23
10 24
10 23
2 8
2 29
15 28
12 18
16 26
9 17
10 31
16 24
2 3
10 29
11 22
11 14
17 19
11 19
28 31
3 31
5 20
8 21
20 21
9 26
18 25
3 18
5 7
4 25
26 27
29 31
20 26
1 23
26 28
11 13
9 19
